Problem:    ej2
Rows:       81
Columns:    64
Non-zeros:  352
Status:     OPTIMAL
Objective:  resultado = 4743.938125 (MAXimum)

   No.   Row name   St   Activity     Lower bound   Upper bound    Marginal
------ ------------ -- ------------- ------------- ------------- -------------
     1 resultado    B        4743.94                             
     2 inicial[S1]  NS         55000         55000             =      0.199671
     3 inicial[S2]  NS         55000         55000             =      0.234304
     4 inicial[S3]  NS         55000         55000             =      0.194601
     5 inicial[S4]  NS         55000         55000             =      0.199569
     6 inicial[S5]  NS         55000         55000             =      0.179068
     7 inicial[S6]  NS         55000         55000             =      0.198903
     8 inicial[S7]  NS         55000         55000             =      0.165235
     9 inicial[S8]  NS         55000         55000             =      0.169448
    10 capital[S1,2]
                    NS             0            -0             =      0.167606
    11 capital[S1,3]
                    NS             0            -0             =        0.1425
    12 capital[S2,2]
                    NS             0            -0             =      0.186319
    13 capital[S2,3]
                    NS             0            -0             =       0.14625
    14 capital[S3,2]
                    NS             0            -0             =      0.154556
    15 capital[S3,3]
                    NS             0            -0             =        0.1425
    16 capital[S4,2]
                    NS             0            -0             =      0.158531
    17 capital[S4,3]
                    NS             0            -0             =       0.14625
    18 capital[S5,2]
                    NS             0            -0             =      0.167606
    19 capital[S5,3]
                    NS             0            -0             =        0.1425
    20 capital[S6,2]
                    NS             0            -0             =      0.186319
    21 capital[S6,3]
                    NS             0            -0             =       0.14625
    22 capital[S7,2]
                    NS             0            -0             =      0.154556
    23 capital[S7,3]
                    NS             0            -0             =        0.1425
    24 capital[S8,2]
                    NS             0            -0             =      0.158531
    25 capital[S8,3]
                    NS             0            -0             =       0.14625
    26 ganancia[S1] NS         80000         80000             =        -0.125
    27 ganancia[S2] NS         80000         80000             =        -0.125
    28 ganancia[S3] NS         80000         80000             =        -0.125
    29 ganancia[S4] NS         80000         80000             =        -0.125
    30 ganancia[S5] NS         80000         80000             =        -0.125
    31 ganancia[S6] NS         80000         80000             =        -0.125
    32 ganancia[S7] NS         80000         80000             =        -0.125
    33 ganancia[S8] NS         80000         80000             =        -0.125
    34 no_anticipatividad[Acciones,1,S1]
                    NS             0            -0             =     -0.011242
    35 no_anticipatividad[Acciones,1,S2]
                    B              0            -0             = 
    36 no_anticipatividad[Acciones,1,S3]
                    B              0            -0             = 
    37 no_anticipatividad[Acciones,1,S4]
                    B              0            -0             = 
    38 no_anticipatividad[Acciones,1,S5]
                    B              0            -0             = 
    39 no_anticipatividad[Acciones,1,S6]
                    B              0            -0             = 
    40 no_anticipatividad[Acciones,1,S7]
                    B              0            -0             = 
    41 no_anticipatividad[Acciones,1,S8]
                    B              0            -0             = 
    42 no_anticipatividad[Acciones,2,S1]
                    NS             0            -0             =      -0.02805
    43 no_anticipatividad[Acciones,2,S2]
                    B              0            -0             = 
    44 no_anticipatividad[Acciones,2,S3]
                    B              0            -0             = 
    45 no_anticipatividad[Acciones,2,S4]
                    B              0            -0             = 
    46 no_anticipatividad[Acciones,2,S5]
                    NS             0            -0             =      -0.02805
    47 no_anticipatividad[Acciones,2,S6]
                    B              0            -0             = 
    48 no_anticipatividad[Acciones,2,S7]
                    B              0            -0             = 
    49 no_anticipatividad[Acciones,2,S8]
                    B              0            -0             = 
    50 no_anticipatividad[Acciones,3,S1]
                    NS             0            -0             =         -0.11
    51 no_anticipatividad[Acciones,3,S2]
                    B              0            -0             = 
    52 no_anticipatividad[Acciones,3,S3]
                    NS             0            -0             =         -0.11
    53 no_anticipatividad[Acciones,3,S4]
                    B              0            -0             = 
    54 no_anticipatividad[Acciones,3,S5]
                    NS             0            -0             =         -0.11
    55 no_anticipatividad[Acciones,3,S6]
                    B              0            -0             = 
    56 no_anticipatividad[Acciones,3,S7]
                    NS             0            -0             =         -0.11
    57 no_anticipatividad[Acciones,3,S8]
                    B              0            -0             = 
    58 no_anticipatividad[Bonos,1,S1]
                    B              0            -0             = 
    59 no_anticipatividad[Bonos,1,S2]
                    B              0            -0             = 
    60 no_anticipatividad[Bonos,1,S3]
                    B              0            -0             = 
    61 no_anticipatividad[Bonos,1,S4]
                    B              0            -0             = 
    62 no_anticipatividad[Bonos,1,S5]
                    NS             0            -0             =    -0.0172511
    63 no_anticipatividad[Bonos,1,S6]
                    NS             0            -0             =    -0.0183738
    64 no_anticipatividad[Bonos,1,S7]
                    NS             0            -0             =    -0.0164681
    65 no_anticipatividad[Bonos,1,S8]
                    NS             0            -0             =    -0.0167066
    66 no_anticipatividad[Bonos,2,S1]
                    B              0            -0             = 
    67 no_anticipatividad[Bonos,2,S2]
                    B              0            -0             = 
    68 no_anticipatividad[Bonos,2,S3]
                    NS             0            -0             =       -0.0204
    69 no_anticipatividad[Bonos,2,S4]
                    NS             0            -0             =      -0.02085
    70 no_anticipatividad[Bonos,2,S5]
                    B              0            -0             = 
    71 no_anticipatividad[Bonos,2,S6]
                    B              0            -0             = 
    72 no_anticipatividad[Bonos,2,S7]
                    NS             0            -0             =       -0.0204
    73 no_anticipatividad[Bonos,2,S8]
                    NS             0            -0             =      -0.02085
    74 no_anticipatividad[Bonos,3,S1]
                    B              0            -0             = 
    75 no_anticipatividad[Bonos,3,S2]
                    B              0            -0             = 
    76 no_anticipatividad[Bonos,3,S3]
                    B              0            -0             = 
    77 no_anticipatividad[Bonos,3,S4]
                    B              0            -0             = 
    78 no_anticipatividad[Bonos,3,S5]
                    B              0            -0             = 
    79 no_anticipatividad[Bonos,3,S6]
                    B              0            -0             = 
    80 no_anticipatividad[Bonos,3,S7]
                    B              0            -0             = 
    81 no_anticipatividad[Bonos,3,S8]
                    B              0            -0             = 

   No. Column name  St   Activity     Lower bound   Upper bound    Marginal
------ ------------ -- ------------- ------------- ------------- -------------
     1 x[Acciones,1,S1]
                    B          55000             0               
     2 x[Bonos,1,S1]
                    B              0             0               
     3 x[Acciones,1,S2]
                    B          55000             0               
     4 x[Bonos,1,S2]
                    NL             0             0                  -0.0133004
     5 x[Acciones,1,S3]
                    B          55000             0               
     6 x[Bonos,1,S3]
                    NL             0             0                  -0.0098065
     7 x[Acciones,1,S4]
                    B          55000             0               
     8 x[Bonos,1,S4]
                    NL             0             0                  -0.0102438
     9 x[Acciones,1,S5]
                    B          55000             0               
    10 x[Bonos,1,S5]
                    B              0             0               
    11 x[Acciones,1,S6]
                    B          55000             0               
    12 x[Bonos,1,S6]
                    B              0             0               
    13 x[Acciones,1,S7]
                    B          55000             0               
    14 x[Bonos,1,S7]
                    B              0             0               
    15 x[Acciones,1,S8]
                    B          55000             0               
    16 x[Bonos,1,S8]
                    B              0             0               
    17 x[Acciones,2,S1]
                    B          68750             0               
    18 x[Bonos,2,S1]
                    B              0             0               
    19 x[Acciones,3,S1]
                    B        85937.5             0               
    20 x[Bonos,3,S1]
                    B              0             0               
    21 x[Acciones,2,S2]
                    B          68750             0               
    22 x[Bonos,2,S2]
                    NL             0             0                  -0.0144375
    23 x[Acciones,3,S2]
                    B        85937.5             0               
    24 x[Bonos,3,S2]
                    NL             0             0                    -0.00625
    25 x[Acciones,2,S3]
                    B          68750             0               
    26 x[Bonos,2,S3]
                    B              0             0               
    27 x[Acciones,3,S3]
                    B          72875             0               
    28 x[Bonos,3,S3]
                    B              0             0               
    29 x[Acciones,2,S4]
                    B          68750             0               
    30 x[Bonos,2,S4]
                    B              0             0               
    31 x[Acciones,3,S4]
                    B          72875             0               
    32 x[Bonos,3,S4]
                    NL             0             0                    -0.00625
    33 x[Acciones,2,S5]
                    B          58300             0               
    34 x[Bonos,2,S5]
                    B              0             0               
    35 x[Acciones,3,S5]
                    B          72875             0               
    36 x[Bonos,3,S5]
                    B              0             0               
    37 x[Acciones,2,S6]
                    B          58300             0               
    38 x[Bonos,2,S6]
                    NL             0             0                  -0.0144375
    39 x[Acciones,3,S6]
                    B          72875             0               
    40 x[Bonos,3,S6]
                    NL             0             0                    -0.00625
    41 x[Acciones,2,S7]
                    B          58300             0               
    42 x[Bonos,2,S7]
                    B              0             0               
    43 x[Acciones,3,S7]
                    B          61798             0               
    44 x[Bonos,3,S7]
                    B              0             0               
    45 x[Acciones,2,S8]
                    B          58300             0               
    46 x[Bonos,2,S8]
                    B              0             0               
    47 x[Acciones,3,S8]
                    B          61798             0               
    48 x[Bonos,3,S8]
                    NL             0             0                    -0.00625
    49 w[S1]        NL             0             0                       < eps
    50 w[S2]        NL             0             0                       < eps
    51 w[S3]        NL             0             0                       < eps
    52 w[S4]        B         2752.5             0               
    53 w[S5]        NL             0             0                       < eps
    54 w[S6]        B         2752.5             0               
    55 w[S7]        B         2752.5             0               
    56 w[S8]        B        14494.1             0               
    57 y[S1]        B        27421.9             0               
    58 y[S2]        B        11093.8             0               
    59 y[S3]        B        11093.8             0               
    60 y[S4]        NL             0             0                       < eps
    61 y[S5]        B        11093.8             0               
    62 y[S6]        NL             0             0                       < eps
    63 y[S7]        NL             0             0                       < eps
    64 y[S8]        NL             0             0                       < eps

Karush-Kuhn-Tucker optimality conditions:

KKT.PE: max.abs.err. = 1.82e-011 on row 26
        max.rel.err. = 8.73e-012 on row 11
        High quality

KKT.PB: max.abs.err. = 9.02e-012 on row 39
        max.rel.err. = 9.02e-012 on row 39
        High quality

KKT.DE: max.abs.err. = 5.42e-017 on column 11
        max.rel.err. = 5.42e-017 on column 11
        High quality

KKT.DB: max.abs.err. = 0.00e+000 on row 0
        max.rel.err. = 0.00e+000 on row 0
        High quality

End of output
